
(set-logic ALL) 

(declare-datatype MyList ((Nil) (Cons (head Real) (tail MyList)) )) 
(declare-fun l0 () MyList) 
(declare-fun l1 () MyList) 
(declare-fun l2 () MyList) 
(declare-fun l3 () MyList) 
(declare-fun i0 () Real) 
(declare-fun i1 () Real) 
(assert (and (= l3 l1) (is-Cons Nil)) )
(assert (and (is-Nil l0) (= l3 l0) (= l3 Nil)) )
(assert (or (= l3 Nil) (is-Cons Nil) (= l3 Nil)) )
(assert (is-Nil Nil) )
(assert (is-Cons Nil) )
(assert (or (is-Cons l1) (= l2 Nil)) )
(assert (is-Cons Nil) )
(assert (is-Nil Nil) )
(check-sat)
